Route #1: 77 23 44 26 11 64 40 53
Route #2: 42 25 10 68 18 16 66 60 6
Route #3: 41 14 36 9 19 4 59 35 55 33 13
Route #4: 50 61 39 48 74 28
Route #5: 62 54 20 3 73 76
Route #6: 7 32 31 45 46 34 12 15
Route #7: 8 71 22 51 57 29 65 47
Route #8: 49 75 37 70 30 5 63
Route #9: 2 27 56 67 43 21 24 1
Route #10: 52 69 38 58 72 17
Cost 1266